CIF file
1.0
        5.8074998856         0.0000000000         0.0000000000
        0.0000000000         8.1981000900         0.0000000000
       -3.3598846707         0.0000000000        24.9617921144
    C    F    H    N    S
   44    4   20    8   16
Direct
     0.285899997         0.523800015         0.891600013
     0.714100003         0.476199985         0.108399987
     0.714100003         0.023800015         0.608399987
     0.285899997         0.976199985         0.391600013
     0.186100006         0.061400000         0.885500014
     0.813899994         0.938600004         0.114499986
     0.813899994         0.561399996         0.614499986
     0.186100006         0.438600004         0.385500014
     0.703899980         0.415499985         0.011500000
     0.296100020         0.584500015         0.988499999
     0.296100020         0.915499985         0.488499999
     0.703899980         0.084500015         0.511500001
     0.604499996         0.426400006         0.959900022
     0.395500004         0.573599994         0.040099978
     0.395500004         0.926400006         0.540099978
     0.604499996         0.073599994         0.459900022
     0.075000003         0.608500004         0.875800014
     0.925000012         0.391499996         0.124199986
     0.925000012         0.108500004         0.624199986
     0.075000003         0.891499996         0.375800014
     0.386599988         0.448399991         0.849200010
     0.613399982         0.551599979         0.150799990
     0.613399982         0.948400021         0.650799990
     0.386599988         0.051600009         0.349200010
     0.974600017         0.043800000         0.782599986
     0.025399983         0.956200004         0.217400014
     0.025399983         0.543799996         0.717400014
     0.974600017         0.456200004         0.282599986
     0.201900005         0.033100002         0.766700029
     0.798099995         0.966899991         0.233299971
     0.798099995         0.533100009         0.733299971
     0.201900005         0.466899991         0.266700029
     0.391799986         0.511799991         0.944899976
     0.608200014         0.488200009         0.055100024
     0.608200014         0.011799991         0.555100024
     0.391799986         0.988200009         0.444899976
     0.449999988         0.002700000         0.973500013
     0.550000012         0.997300029         0.026499987
     0.550000012         0.502699971         0.526499987
     0.449999988         0.497299999         0.473500013
     0.366499990         0.973599970         0.870800018
     0.633499980         0.026400030         0.129199982
     0.633499980         0.473599970         0.629199982
     0.366499990         0.526400030         0.370800018
     0.901499987         0.331299990         0.019800000
     0.098500013         0.668699980         0.980199993
     0.098500013         0.831300020         0.480199993
     0.901499987         0.168700010         0.519800007
     0.913999975         0.933799982         0.783999979
     0.086000025         0.066200018         0.216000021
     0.086000025         0.433799982         0.716000021
     0.913999975         0.566200018         0.283999979
     0.875500023         0.101300001         0.754599988
     0.124499977         0.898699999         0.245400012
     0.124499977         0.601300001         0.745400012
     0.875500023         0.398699999         0.254599988
     0.264400005         0.142700002         0.765900016
     0.735599995         0.857299984         0.234099984
     0.735599995         0.642700016         0.734099984
     0.264400005         0.357299984         0.265900016
     0.185800001         0.991500020         0.730300009
     0.814199984         0.008499980         0.269699991
     0.814199984         0.491500020         0.769699991
     0.185800001         0.508499980         0.230300009
     0.679400027         0.375099987         0.932500005
     0.320599973         0.624899983         0.067499995
     0.320599973         0.875100017         0.567499995
     0.679400027         0.124900013         0.432500005
     0.467400014         0.385199994         0.815100014
     0.532599986         0.614799976         0.184899986
     0.532599986         0.885200024         0.684899986
     0.467400014         0.114800006         0.315100014
     0.905799985         0.675300002         0.861899972
     0.094200015         0.324699998         0.138100028
     0.094200015         0.175300002         0.638100028
     0.905799985         0.824699998         0.361899972
     0.579800010         0.914799988         0.922800004
     0.420199990         0.085200012         0.077199996
     0.420199990         0.414799988         0.577199996
     0.579800010         0.585200012         0.422800004
     0.945699990         0.141700000         0.845499992
     0.054300010         0.858299971         0.154500008
     0.054300010         0.641700029         0.654500008
     0.945699990         0.358300000         0.345499992
     0.410200000         0.909300029         0.807200015
     0.589800000         0.090699971         0.192799985
     0.589800000         0.409300029         0.692799985
     0.410200000         0.590699971         0.307200015
     0.190300003         0.099900000         0.953299999
     0.809700012         0.900099993         0.046700001
     0.809700012         0.599900007         0.546700001
     0.190300003         0.400099993         0.453299999
