OUTCAR.0024.+1.out 1.0e-02              
   1.00000000000000     
     5.4699999999999998    0.0000000000000000    0.0000000000000000
     0.0000000000000000    5.4699999999999998    0.0000000000000000
     0.0000000000000000    0.0000000000000000    5.4699999999999998
   Si
     8
Direct
  0.9997788320840968  0.9999995306764191  0.9995986235831822
  0.2499995306764191  0.2495986235831822  0.2502748080804409
  0.4995986235831822  0.5002748080804409  0.0006497831078605
  0.7502748080804409  0.7506497831078605  0.2502146987020097
  0.5006497831078605  0.0002146987020097  0.5000262633455179
  0.7502146987020097  0.2500262633455179  0.7506130475502744
  0.0000262633455179  0.5006130475502744  0.4999806935831828
  0.2506130475502744  0.7499806935831828  0.7502193734552094
 
  0.00000000E+00  0.00000000E+00  0.00000000E+00
  0.00000000E+00  0.00000000E+00  0.00000000E+00
  0.00000000E+00  0.00000000E+00  0.00000000E+00
  0.00000000E+00  0.00000000E+00  0.00000000E+00
  0.00000000E+00  0.00000000E+00  0.00000000E+00
  0.00000000E+00  0.00000000E+00  0.00000000E+00
  0.00000000E+00  0.00000000E+00  0.00000000E+00
  0.00000000E+00  0.00000000E+00  0.00000000E+00
