SYSTEM = NAPTHA04
ISTART = 0 # From-scratch; job : 0-new 1-cont 2-samecut 
NWRITE = 3 Verbosity

! electronic relaxation
ENCUT = 200.0 # cut-off energy
PREC = Normal # precision : accurate/normal/low 
ISPIN = 1 # 1 - off, 2 - on (non spin-polarized calculation)
ICHARG = 2 # > 10 for non-SC calculation
ALGO = Fast # DAVidson, then RMM-DIIS
EDIFF = 1.0E-8 # default
ISMEAR = 0 # gaussian
SIGMA = 0.02

! PAW's
LREAL = .FALSE. # default - Automatic choice of how projection is done
ADDGRID = .TRUE.

!LCALCEPS=.TRUE.

LEPSILON= .TRUE.
NGX = 26
NGY = 26
NGZ = 26

! ionic relaxation
!EDIFFG = -1E-4
!ISYM = 0
!IBRION = 1
!NSW = 1000
! ISIF = 2

! parallelisation
LPLANE = .TRUE.
NSIM=4
#NCORE = 12 # number of cores

! output
LWAVE = .FALSE. # WAVECAR file
LCHARG = .FALSE. # CHCAR file
LELF = .FALSE.
LVTOT = .FALSE.
