OUTCAR.0024.+1.out 1.0e-02 
 1.000000000000
 5.470000000000  0.000000000000  0.000000000000
 0.000000000000  5.470000000000  0.000000000000
 0.000000000000  0.000000000000  5.470000000000
   Si
8
Cartesian
  -0.0012097885   -0.0000025672   -0.0021955290
   1.3674974328    1.3653044710    1.3690032002
   2.7328044710    2.7365032002    0.0035543136
   4.1040032002    4.1060543136    1.3686744019
   2.7385543136    0.0011744019    2.7351436605
   4.1036744019    1.3676436605    4.1058533701
   0.0001436605    2.7383533701    2.7348943939
   1.3708533701    4.1023943939    4.1036999728
